Problem:    radioterapia
Rows:       14
Columns:    5
Non-zeros:  36
Status:     OPTIMAL
Objective:  z = 24.55 (MAXimum)

   No.   Row name   St   Activity     Lower bound   Upper bound    Marginal
------ ------------ -- ------------- ------------- ------------- -------------
     1 RadiazioniPosizione[1]
                    NU            12                          12          0.15 
     2 RadiazioniPosizione[2]
                    B              0                          13 
     3 RadiazioniPosizione[3]
                    B              9                          10 
     4 RadiazioniPosizione[4]
                    NU            15                          15           0.2 
     5 RadiazioniPosizione[5]
                    B             14                          15 
     6 TotaleRadiazioni
                    B             50                          60 
     7 AssorbimentoRadiazioni[1]
                    NU           5.5                         5.5           2.5 
     8 AssorbimentoRadiazioni[2]
                    B           3.95                           9 
     9 AssorbimentoRadiazioni[3]
                    B              0                           6 
    10 AssorbimentoRadiazioni[4]
                    NU           2.4                         2.4           2.5 
    11 AssorbimentoRadiazioni[5]
                    B            4.4                           7 
    12 AssorbimentoRadiazioni[6]
                    B           5.45                         5.5 
    13 AssorbimentoRadiazioni[7]
                    B           3.75                         9.5 
    14 z            B          24.55                             

   No. Column name  St   Activity     Lower bound   Upper bound    Marginal
------ ------------ -- ------------- ------------- ------------- -------------
     1 x[1]         B             12             0               
     2 x[2]         NL             0             0                        -0.2 
     3 x[3]         B              9             0               
     4 x[4]         B             15             0               
     5 x[5]         B             14             0               

Karush-Kuhn-Tucker optimality conditions:

KKT.PE: max.abs.err = 0.00e+00 on row 0
        max.rel.err = 0.00e+00 on row 0
        High quality

KKT.PB: max.abs.err = 0.00e+00 on row 0
        max.rel.err = 0.00e+00 on row 0
        High quality

KKT.DE: max.abs.err = 0.00e+00 on column 0
        max.rel.err = 0.00e+00 on column 0
        High quality

KKT.DB: max.abs.err = 0.00e+00 on row 0
        max.rel.err = 0.00e+00 on row 0
        High quality

End of output
